networks/zoo_116_3306/zoo_116_3306-lower.txt
Number of groups: 58
Flow 1: {1 33 0} {33 15 0} {53 5 0} {5 2 0} {2 60 0} 
Flow 1: {15 53 0} Flow 2: {33 3 0} {3 61 0} 
Flow 3: {35 4 0} {4 62 0} 
Flow 3: {33 35 0} Flow 4: {5 63 0} 
Flow 5: {53 6 0} {6 64 0} 
Flow 6: {53 7 0} {7 65 0} 
Flow 7: {5 8 0} {8 66 0} 
Flow 8: {23 9 0} {9 67 0} 
Flow 8: {44 11 0} {11 22 0} {22 23 0} {15 44 0} Flow 9: {56 10 0} {10 68 0} 
Flow 9: {35 56 0} Flow 10: {11 69 0} 
Flow 11: {11 12 0} {12 70 0} 
Flow 12: {22 21 0} {21 13 0} {13 71 0} 
Flow 13: {28 14 0} {14 72 0} 
Flow 13: {15 28 0} Flow 14: {15 73 0} 
Flow 15: {33 16 0} {16 74 0} 
Flow 16: {33 32 0} {32 17 0} {17 75 0} 
Flow 17: {32 18 0} {18 76 0} 
Flow 18: {15 47 0} {47 19 0} {19 77 0} 
Flow 19: {22 20 0} {20 78 0} 
Flow 20: {21 79 0} 
Flow 21: {22 80 0} 
Flow 22: {23 81 0} 
Flow 23: {22 24 0} {24 82 0} 
Flow 24: {35 25 0} {25 83 0} 
Flow 25: {35 26 0} {26 84 0} 
Flow 26: {53 27 0} {27 85 0} 
Flow 27: {28 86 0} 
Flow 28: {28 29 0} {29 87 0} 
Flow 29: {32 30 0} {30 88 0} 
Flow 30: {32 31 0} {31 89 0} 
Flow 31: {32 90 0} 
Flow 32: {33 91 0} 
Flow 33: {16 34 0} {34 92 0} 
Flow 34: {35 93 0} 
Flow 35: {35 36 0} {36 94 0} 
Flow 36: {35 37 0} {37 95 0} 
Flow 37: {35 38 0} {38 96 0} 
Flow 38: {19 39 0} {39 97 0} 
Flow 39: {47 40 0} {40 98 0} 
Flow 40: {19 41 0} {41 99 0} 
Flow 41: {53 42 0} {42 100 0} 
Flow 42: {11 43 0} {43 101 0} 
Flow 43: {44 102 0} 
Flow 44: {47 45 0} {45 103 0} 
Flow 45: {47 46 0} {46 104 0} 
Flow 46: {47 105 0} 
Flow 47: {47 48 0} {48 106 0} 
Flow 48: {35 49 0} {49 107 0} 
Flow 49: {33 50 0} {50 108 0} 
Flow 50: {16 51 0} {51 109 0} 
Flow 51: {38 52 0} {52 110 0} 
Flow 52: {53 111 0} 
Flow 53: {33 54 0} {54 112 0} 
Flow 54: {15 55 0} {55 113 0} 
Flow 55: {56 114 0} 
Flow 56: {53 57 0} {57 115 0} 
Flow 57: {44 58 0} {58 116 0} 
Flow 58: {33 1 0} {1 59 0} 
Flow 58: {2 5 0} {5 53 0} {53 15 0} {15 33 0} Flow 60: {53 35 0} Flow 65: {5 11 0} Flow 72: {35 16 0} Flow 73: {15 32 0} Flow 75: {53 19 0} Flow 98: {11 42 0} Flow 100: {11 44 0} Flow 110: {35 54 0} Flow 115: {3 33 0} Flow 172: {4 35 0} {35 33 0} Flow 173: {35 53 0} Flow 179: {53 11 0} Flow 188: {54 18 0} Flow 213: {7 43 0} Flow 227: {37 57 0} Flow 286: {6 53 0} Flow 343: {7 53 0} Flow 350: {43 11 0} Flow 400: {8 5 0} Flow 457: {9 23 0} {23 22 0} {22 11 0} {44 15 0} Flow 458: {11 5 0} Flow 460: {11 53 0} Flow 463: {43 7 0} Flow 474: {22 19 0} Flow 495: {19 47 0} Flow 514: {10 56 0} {56 35 0} Flow 628: {12 11 0} Flow 685: {13 21 0} {21 22 0} Flow 742: {14 28 0} {28 15 0} Flow 777: {28 57 0} {57 37 0} Flow 778: {57 38 0} Flow 856: {16 33 0} Flow 857: {16 35 0} Flow 913: {17 32 0} {32 33 0} Flow 914: {32 15 0} Flow 947: {18 54 0} {54 36 0} Flow 970: {54 33 0} Flow 971: {54 35 0} Flow 983: {18 32 0} Flow 1027: {19 53 0} Flow 1035: {19 22 0} Flow 1084: {20 22 0} Flow 1312: {24 22 0} Flow 1369: {25 35 0} Flow 1426: {26 35 0} Flow 1483: {27 53 0} Flow 1597: {29 28 0} Flow 1654: {30 32 0} Flow 1711: {31 32 0} Flow 1882: {34 16 0} Flow 1996: {36 35 0} Flow 2013: {36 54 0} Flow 2053: {37 35 0} Flow 2066: {57 28 0} Flow 2110: {38 35 0} Flow 2123: {38 57 0} Flow 2167: {39 19 0} Flow 2224: {40 47 0} {47 15 0} Flow 2281: {41 19 0} Flow 2338: {42 53 0} Flow 2339: {42 11 0} Flow 2509: {45 47 0} Flow 2566: {46 47 0} Flow 2680: {48 47 0} Flow 2737: {49 35 0} Flow 2794: {50 33 0} Flow 2851: {51 16 0} Flow 2908: {52 38 0} Flow 3079: {55 15 0} Flow 3194: {57 53 0} Flow 3250: {58 44 0} Time taken running everything: 1 seconds
