networks/zoo_116_3306/zoo_116_3306-lower.sol
<?xml version = "1.0" encoding="UTF-8" standalone="yes"?>
<CPLEXSolution version="1.2">
 <header
   problemName="networks/zoo_116_3306/zoo_116_3306-lower.lp"
   solutionName="incumbent"
   solutionIndex="-1"
   objectiveValue="62"
   solutionTypeValue="3"
   solutionTypeString="primal"
   solutionStatusValue="101"
   solutionStatusString="integer optimal solution"
   solutionMethodString="mip"
   primalFeasible="1"
   dualFeasible="1"
   MIPNodes="0"
   MIPIterations="5749"
   writeLevel="3"/>
 <quality
   epInt="1.0000000000000001e-05"
   epRHS="9.9999999999999995e-07"
   maxIntInfeas="0"
   maxPrimalInfeas="0"
   maxX="1"
   maxSlack="1"/>
 <variables>
  <variable name="Y(57,58)" index="6553" value="1"/>
  <variable name="Y(101,45)" index="11644" value="1"/>
  <variable name="Y(143,30)" index="16501" value="1"/>
  <variable name="Y(208,38)" index="24049" value="1"/>
  <variable name="Y(235,8)" index="27151" value="1"/>
  <variable name="Y(303,19)" index="35050" value="1"/>
  <variable name="Y(363,22)" index="42013" value="1"/>
  <variable name="Y(440,11)" index="50934" value="1"/>
  <variable name="Y(475,20)" index="55003" value="1"/>
  <variable name="Y(538,26)" index="62317" value="1"/>
  <variable name="Y(612,43)" index="70918" value="1"/>
  <variable name="Y(658,32)" index="76243" value="1"/>
  <variable name="Y(693,9)" index="80280" value="1"/>
  <variable name="Y(756,16)" index="87595" value="1"/>
  <variable name="Y(792,52)" index="91807" value="1"/>
  <variable name="Y(803,5)" index="93036" value="1"/>
  <variable name="Y(852,55)" index="98770" value="1"/>
  <variable name="Y(905,51)" index="104914" value="1"/>
  <variable name="Y(967,56)" index="112111" value="1"/>
  <variable name="Y(999,31)" index="115798" value="1"/>
  <variable name="Y(1018,50)" index="118021" value="1"/>
  <variable name="Y(1064,39)" index="123346" value="1"/>
  <variable name="Y(1094,11)" index="126798" value="1"/>
  <variable name="Y(1128,46)" index="130777" value="1"/>
  <variable name="Y(1153,13)" index="133644" value="1"/>
  <variable name="Y(1332,21)" index="154416" value="1"/>
  <variable name="Y(1375,7)" index="159390" value="1"/>
  <variable name="Y(1459,35)" index="169162" value="1"/>
  <variable name="Y(1523,42)" index="176593" value="1"/>
  <variable name="Y(1610,14)" index="186657" value="1"/>
  <variable name="Y(1688,54)" index="195745" value="1"/>
  <variable name="Y(1725,15)" index="199998" value="1"/>
  <variable name="Y(1784,17)" index="206844" value="1"/>
  <variable name="Y(1877,54)" index="217669" value="1"/>
  <variable name="Y(1882,1)" index="218196" value="1"/>
  <variable name="Y(1986,49)" index="230308" value="1"/>
  <variable name="Y(1998,3)" index="231654" value="1"/>
  <variable name="Y(2013,18)" index="233409" value="1"/>
  <variable name="Y(2080,37)" index="241200" value="1"/>
  <variable name="Y(2137,28)" index="247803" value="1"/>
  <variable name="Y(2152,44)" index="249559" value="1"/>
  <variable name="Y(2178,12)" index="252543" value="1"/>
  <variable name="Y(2189,23)" index="253830" value="1"/>
  <variable name="Y(2279,57)" index="264304" value="1"/>
  <variable name="Y(2304,24)" index="267171" value="1"/>
  <variable name="Y(2339,2)" index="271209" value="1"/>
  <variable name="Y(2343,6)" index="271677" value="1"/>
  <variable name="Y(2421,27)" index="280746" value="1"/>
  <variable name="Y(2555,48)" index="296311" value="1"/>
  <variable name="Y(2606,41)" index="302220" value="1"/>
  <variable name="Y(2662,40)" index="308715" value="1"/>
  <variable name="Y(2726,47)" index="316146" value="1"/>
  <variable name="Y(2789,35)" index="323442" value="1"/>
  <variable name="Y(2826,33)" index="327732" value="1"/>
  <variable name="Y(2854,4)" index="330951" value="1"/>
  <variable name="Y(2944,37)" index="341424" value="1"/>
  <variable name="Y(3046,25)" index="353244" value="1"/>
  <variable name="Y(3107,29)" index="360324" value="1"/>
  <variable name="Y(3145,10)" index="364713" value="1"/>
  <variable name="Y(3226,34)" index="374133" value="1"/>
  <variable name="Y(3245,53)" index="376356" value="1"/>
  <variable name="Y(3285,36)" index="380979" value="1"/>
  <variable name="X(1,33,57)" index="383552" value="1"/>
  <variable name="X(1,59,1882)" index="388683" value="1"/>
  <variable name="X(2,5,101)" index="390208" value="1"/>
  <variable name="X(2,60,2339)" index="395752" value="1"/>
  <variable name="X(3,33,143)" index="396862" value="1"/>
  <variable name="X(3,61,1998)" index="402023" value="1"/>
  <variable name="X(4,35,208)" index="403539" value="1"/>
  <variable name="X(4,62,2854)" index="409491" value="1"/>
  <variable name="X(5,2,2339)" index="412282" value="1"/>
  <variable name="X(5,8,235)" index="413484" value="1"/>
  <variable name="X(5,11,440)" index="416995" value="1"/>
  <variable name="X(5,53,101)" index="419962" value="1"/>
  <variable name="X(5,63,803)" index="423970" value="1"/>
  <variable name="X(6,53,303)" index="426776" value="1"/>
  <variable name="X(6,64,2343)" index="432122" value="1"/>
  <variable name="X(7,43,363)" index="433448" value="1"/>
  <variable name="X(7,53,2421)" index="438812" value="1"/>
  <variable name="X(7,65,1375)" index="441072" value="1"/>
  <variable name="X(8,5,440)" index="443443" value="1"/>
  <variable name="X(8,66,235)" index="446544" value="1"/>
  <variable name="X(9,23,475)" index="450090" value="1"/>
  <variable name="X(9,67,693)" index="453614" value="1"/>
  <variable name="X(10,56,538)" index="456765" value="1"/>
  <variable name="X(10,68,3145)" index="462678" value="1"/>
  <variable name="X(11,5,2339)" index="465178" value="1"/>
  <variable name="X(11,12,2178)" index="468323" value="1"/>
  <variable name="X(11,22,363)" index="469814" value="1"/>
  <variable name="X(11,42,440)" index="473197" value="1"/>
  <variable name="X(11,43,612)" index="476675" value="1"/>
  <variable name="X(11,44,658)" index="480027" value="1"/>
  <variable name="X(11,53,3285)" index="485960" value="1"/>
  <variable name="X(11,69,1094)" index="487075" value="1"/>
  <variable name="X(12,11,658)" index="489945" value="1"/>
  <variable name="X(12,70,2178)" index="494771" value="1"/>
  <variable name="X(13,21,693)" index="496592" value="1"/>
  <variable name="X(13,71,1153)" index="500358" value="1"/>
  <variable name="X(14,28,756)" index="503267" value="1"/>
  <variable name="X(14,72,1610)" index="507427" value="1"/>
  <variable name="X(15,28,3107)" index="512230" value="1"/>
  <variable name="X(15,32,658)" index="513087" value="1"/>
  <variable name="X(15,33,756)" index="516491" value="1"/>
  <variable name="X(15,44,57)" index="519098" value="1"/>
  <variable name="X(15,47,101)" index="522448" value="1"/>
  <variable name="X(15,53,2279)" index="527932" value="1"/>
  <variable name="X(15,55,852)" index="529811" value="1"/>
  <variable name="X(15,73,1725)" index="533990" value="1"/>
  <variable name="X(16,33,1882)" index="537453" value="1"/>
  <variable name="X(16,34,3226)" index="542103" value="1"/>
  <variable name="X(16,35,2854)" index="545037" value="1"/>
  <variable name="X(16,51,905)" index="546394" value="1"/>
  <variable name="X(16,74,756)" index="549551" value="1"/>
  <variable name="X(17,32,967)" index="553068" value="1"/>
  <variable name="X(17,75,1784)" index="557191" value="1"/>
  <variable name="X(18,32,999)" index="559712" value="1"/>
  <variable name="X(18,54,1688)" index="563707" value="1"/>
  <variable name="X(18,76,2013)" index="567338" value="1"/>
  <variable name="X(19,22,2304)" index="570935" value="1"/>
  <variable name="X(19,39,1064)" index="573001" value="1"/>
  <variable name="X(19,41,2606)" index="577849" value="1"/>
  <variable name="X(19,47,1128)" index="579677" value="1"/>
  <variable name="X(19,53,2178)" index="584033" value="1"/>
  <variable name="X(19,77,303)" index="585464" value="1"/>
  <variable name="X(20,22,1094)" index="589561" value="1"/>
  <variable name="X(20,78,475)" index="592248" value="1"/>
  <variable name="X(21,13,1153)" index="596232" value="1"/>
  <variable name="X(21,22,693)" index="599078" value="1"/>
  <variable name="X(21,79,1332)" index="603023" value="1"/>
  <variable name="X(22,11,1094)" index="606091" value="1"/>
  <variable name="X(22,19,1128)" index="609431" value="1"/>
  <variable name="X(22,20,475)" index="612084" value="1"/>
  <variable name="X(22,21,1332)" index="616247" value="1"/>
  <variable name="X(22,23,693)" index="618914" value="1"/>
  <variable name="X(22,24,2304)" index="623831" value="1"/>
  <variable name="X(22,80,363)" index="625196" value="1"/>
  <variable name="X(23,9,693)" index="628832" value="1"/>
  <variable name="X(23,22,475)" index="631920" value="1"/>
  <variable name="X(23,81,2189)" index="636940" value="1"/>
  <variable name="X(24,22,1332)" index="639389" value="1"/>
  <variable name="X(24,82,2304)" index="643667" value="1"/>
  <variable name="X(25,35,1375)" index="646044" value="1"/>
  <variable name="X(25,83,3046)" index="651021" value="1"/>
  <variable name="X(26,35,1459)" index="652740" value="1"/>
  <variable name="X(26,84,538)" index="655125" value="1"/>
  <variable name="X(27,53,1523)" index="659416" value="1"/>
  <variable name="X(27,85,2421)" index="663620" value="1"/>
  <variable name="X(28,14,1610)" index="666115" value="1"/>
  <variable name="X(28,15,756)" index="668567" value="1"/>
  <variable name="X(28,29,3107)" index="674224" value="1"/>
  <variable name="X(28,57,792)" index="675215" value="1"/>
  <variable name="X(28,86,2137)" index="679866" value="1"/>
  <variable name="X(29,28,1610)" index="682645" value="1"/>
  <variable name="X(29,87,3107)" index="687448" value="1"/>
  <variable name="X(30,32,1688)" index="689335" value="1"/>
  <variable name="X(30,88,143)" index="691096" value="1"/>
  <variable name="X(31,32,1725)" index="695984" value="1"/>
  <variable name="X(31,89,999)" index="698564" value="1"/>
  <variable name="X(32,15,1725)" index="702596" value="1"/>
  <variable name="X(32,17,1784)" index="705961" value="1"/>
  <variable name="X(32,18,1688)" index="709171" value="1"/>
  <variable name="X(32,30,143)" index="710932" value="1"/>
  <variable name="X(32,31,999)" index="715094" value="1"/>
  <variable name="X(32,33,967)" index="718368" value="1"/>
  <variable name="X(32,90,658)" index="721365" value="1"/>
  <variable name="X(33,1,1882)" index="725895" value="1"/>
  <variable name="X(33,3,1998)" index="729317" value="1"/>
  <variable name="X(33,15,57)" index="730682" value="1"/>
  <variable name="X(33,16,756)" index="734687" value="1"/>
  <variable name="X(33,32,143)" index="737380" value="1"/>
  <variable name="X(33,35,967)" index="741510" value="1"/>
  <variable name="X(33,50,1018)" index="744867" value="1"/>
  <variable name="X(33,54,1877)" index="749032" value="1"/>
  <variable name="X(33,91,2826)" index="753287" value="1"/>
  <variable name="X(34,16,1882)" index="755649" value="1"/>
  <variable name="X(34,92,3226)" index="760299" value="1"/>
  <variable name="X(35,4,2854)" index="763233" value="1"/>
  <variable name="X(35,16,3226)" index="766911" value="1"/>
  <variable name="X(35,25,3046)" index="770037" value="1"/>
  <variable name="X(35,26,538)" index="770835" value="1"/>
  <variable name="X(35,33,1998)" index="775601" value="1"/>
  <variable name="X(35,36,3285)" index="780194" value="1"/>
  <variable name="X(35,37,2944)" index="783159" value="1"/>
  <variable name="X(35,38,208)" index="783729" value="1"/>
  <variable name="X(35,49,1986)" index="788813" value="1"/>
  <variable name="X(35,53,1375)" index="791508" value="1"/>
  <variable name="X(35,54,2789)" index="796228" value="1"/>
  <variable name="X(35,56,967)" index="797712" value="1"/>
  <variable name="X(35,93,1459)" index="801510" value="1"/>
  <variable name="X(36,35,1998)" index="805355" value="1"/>
  <variable name="X(36,54,2013)" index="808676" value="1"/>
  <variable name="X(36,94,3285)" index="813254" value="1"/>
  <variable name="X(37,35,3226)" index="816501" value="1"/>
  <variable name="X(37,57,2080)" index="818661" value="1"/>
  <variable name="X(37,95,2944)" index="822831" value="1"/>
  <variable name="X(38,35,2944)" index="826137" value="1"/>
  <variable name="X(38,52,792)" index="827291" value="1"/>
  <variable name="X(38,57,2137)" index="831942" value="1"/>
  <variable name="X(38,96,208)" index="833319" value="1"/>
  <variable name="X(39,19,2178)" index="838595" value="1"/>
  <variable name="X(39,97,1064)" index="840787" value="1"/>
  <variable name="X(40,47,2279)" index="845308" value="1"/>
  <variable name="X(40,98,2662)" index="848997" value="1"/>
  <variable name="X(41,19,2304)" index="851945" value="1"/>
  <variable name="X(41,99,2606)" index="855553" value="1"/>
  <variable name="X(42,11,2339)" index="858592" value="1"/>
  <variable name="X(42,53,2343)" index="861902" value="1"/>
  <variable name="X(42,100,1523)" index="864388" value="1"/>
  <variable name="X(43,7,2421)" index="868592" value="1"/>
  <variable name="X(43,11,363)" index="869840" value="1"/>
  <variable name="X(43,101,612)" index="873395" value="1"/>
  <variable name="X(44,11,3285)" index="879374" value="1"/>
  <variable name="X(44,15,658)" index="880053" value="1"/>
  <variable name="X(44,58,57)" index="882758" value="1"/>
  <variable name="X(44,102,2152)" index="888159" value="1"/>
  <variable name="X(45,47,2555)" index="891868" value="1"/>
  <variable name="X(45,103,101)" index="892720" value="1"/>
  <variable name="X(46,47,2606)" index="898531" value="1"/>
  <variable name="X(46,104,1128)" index="900359" value="1"/>
  <variable name="X(47,15,2279)" index="904816" value="1"/>
  <variable name="X(47,19,2606)" index="908449" value="1"/>
  <variable name="X(47,40,2662)" index="911811" value="1"/>
  <variable name="X(47,45,101)" index="912556" value="1"/>
  <variable name="X(47,46,1128)" index="916889" value="1"/>
  <variable name="X(47,48,2555)" index="921622" value="1"/>
  <variable name="X(47,105,2726)" index="925099" value="1"/>
  <variable name="X(48,47,2726)" index="928405" value="1"/>
  <variable name="X(48,106,2555)" index="931540" value="1"/>
  <variable name="X(49,35,2789)" index="935080" value="1"/>
  <variable name="X(49,107,1986)" index="937583" value="1"/>
  <variable name="X(50,33,2826)" index="941729" value="1"/>
  <variable name="X(50,108,1018)" index="943227" value="1"/>
  <variable name="X(51,16,2854)" index="948369" value="1"/>
  <variable name="X(51,109,905)" index="949726" value="1"/>
  <variable name="X(52,38,2944)" index="955071" value="1"/>
  <variable name="X(52,110,792)" index="956225" value="1"/>
  <variable name="X(53,5,803)" index="959542" value="1"/>
  <variable name="X(53,6,2343)" index="964388" value="1"/>
  <variable name="X(53,7,1375)" index="966726" value="1"/>
  <variable name="X(53,11,2178)" index="970835" value="1"/>
  <variable name="X(53,15,101)" index="972064" value="1"/>
  <variable name="X(53,19,303)" index="975572" value="1"/>
  <variable name="X(53,27,2421)" index="980996" value="1"/>
  <variable name="X(53,35,3285)" index="985166" value="1"/>
  <variable name="X(53,42,1523)" index="986710" value="1"/>
  <variable name="X(53,57,2279)" index="990772" value="1"/>
  <variable name="X(53,111,3245)" index="995044" value="1"/>
  <variable name="X(54,18,2013)" index="997118" value="1"/>
  <variable name="X(54,33,1018)" index="999429" value="1"/>
  <variable name="X(54,35,3046)" index="1004763" value="1"/>
  <variable name="X(54,36,1688)" index="1006711" value="1"/>
  <variable name="X(54,112,1877)" index="1010206" value="1"/>
  <variable name="X(55,15,3107)" index="1014742" value="1"/>
  <variable name="X(55,113,852)" index="1015793" value="1"/>
  <variable name="X(56,10,3145)" index="1021392" value="1"/>
  <variable name="X(56,35,538)" index="1022091" value="1"/>
  <variable name="X(56,114,967)" index="1025826" value="1"/>
  <variable name="X(57,28,2137)" index="1030302" value="1"/>
  <variable name="X(57,37,3226)" index="1034697" value="1"/>
  <variable name="X(57,38,792)" index="1035569" value="1"/>
  <variable name="X(57,53,3245)" index="1041328" value="1"/>
  <variable name="X(57,115,2279)" index="1043668" value="1"/>
  <variable name="X(58,44,3285)" index="1047980" value="1"/>
  <variable name="X(58,116,57)" index="1048058" value="1"/>
 </variables>
</CPLEXSolution>
